c colouring generated by benchmark framework
p edge 1800 110682
v 1 27
v 2 0
v 3 23
v 4 30
v 5 7
v 6 13
v 7 32
v 8 18
v 9 0
v 10 10
v 11 8
v 12 16
v 13 24
v 14 9
v 15 17
v 16 21
v 17 19
v 18 7
v 19 11
v 20 3
v 21 21
v 22 33
v 23 4
v 24 9
v 25 6
v 26 15
v 27 18
v 28 18
v 29 9
v 30 7
v 31 6
v 32 17
v 33 5
v 34 5
v 35 35
v 36 13
v 37 0
v 38 2
v 39 14
v 40 23
v 41 24
v 42 12
v 43 25
v 44 1
v 45 2
v 46 4
v 47 22
v 48 17
v 49 18
v 50 21
v 51 13
v 52 0
v 53 29
v 54 1
v 55 16
v 56 22
v 57 5
v 58 22
v 59 32
v 60 3
v 61 18
v 62 23
v 63 19
v 64 31
v 65 19
v 66 0
v 67 4
v 68 4
v 69 22
v 70 22
v 71 32
v 72 31
v 73 9
v 74 25
v 75 17
v 76 7
v 77 20
v 78 23
v 79 19
v 80 6
v 81 24
v 82 31
v 83 24
v 84 13
v 85 2
v 86 5
v 87 31
v 88 26
v 89 11
v 90 22
v 91 0
v 92 23
v 93 6
v 94 16
v 95 13
v 96 23
v 97 7
v 98 0
v 99 5
v 100 12
v 101 32
v 102 15
v 103 26
v 104 29
v 105 30
v 106 11
v 107 3
v 108 23
v 109 7
v 110 24
v 111 17
v 112 22
v 113 14
v 114 22
v 115 30
v 116 32
v 117 5
v 118 26
v 119 4
v 120 5
v 121 32
v 122 4
v 123 6
v 124 9
v 125 21
v 126 10
v 127 2
v 128 10
v 129 19
v 130 16
v 131 2
v 132 5
v 133 13
v 134 32
v 135 29
v 136 20
v 137 2
v 138 34
v 139 10
v 140 13
v 141 13
v 142 1
v 143 9
v 144 12
v 145 11
v 146 1
v 147 3
v 148 4
v 149 16
v 150 18
v 151 11
v 152 25
v 153 13
v 154 1
v 155 7
v 156 27
v 157 23
v 158 3
v 159 4
v 160 9
v 161 2
v 162 28
v 163 6
v 164 13
v 165 30
v 166 1
v 167 33
v 168 12
v 169 23
v 170 21
v 171 22
v 172 21
v 173 24
v 174 14
v 175 2
v 176 15
v 177 8
v 178 17
v 179 20
v 180 26
v 181 2
v 182 27
v 183 13
v 184 3
v 185 7
v 186 24
v 187 28
v 188 20
v 189 6
v 190 27
v 191 7
v 192 29
v 193 18
v 194 0
v 195 32
v 196 28
v 197 6
v 198 11
v 199 20
v 200 34
v 201 11
v 202 7
v 203 19
v 204 1
v 205 17
v 206 0
v 207 30
v 208 8
v 209 25
v 210 9
v 211 4
v 212 35
v 213 15
v 214 27
v 215 20
v 216 15
v 217 24
v 218 14
v 219 2
v 220 17
v 221 14
v 222 27
v 223 9
v 224 33
v 225 7
v 226 5
v 227 5
v 228 16
v 229 33
v 230 15
v 231 28
v 232 21
v 233 23
v 234 14
v 235 17
v 236 35
v 237 3
v 238 0
v 239 0
v 240 6
v 241 11
v 242 9
v 243 15
v 244 18
v 245 27
v 246 16
v 247 5
v 248 31
v 249 33
v 250 3
v 251 22
v 252 20
v 253 23
v 254 14
v 255 18
v 256 0
v 257 29
v 258 14
v 259 27
v 260 34
v 261 29
v 262 1
v 263 20
v 264 30
v 265 30
v 266 23
v 267 25
v 268 0
v 269 1
v 270 7
v 271 1
v 272 23
v 273 12
v 274 9
v 275 13
v 276 5
v 277 0
v 278 35
v 279 10
v 280 16
v 281 14
v 282 6
v 283 27
v 284 17
v 285 0
v 286 12
v 287 29
v 288 9
v 289 19
v 290 6
v 291 8
v 292 12
v 293 5
v 294 22
v 295 26
v 296 5
v 297 28
v 298 6
v 299 13
v 300 32
v 301 31
v 302 24
v 303 16
v 304 32
v 305 18
v 306 18
v 307 30
v 308 2
v 309 27
v 310 20
v 311 11
v 312 19
v 313 29
v 314 7
v 315 0
v 316 8
v 317 33
v 318 21
v 319 29
v 320 29
v 321 16
v 322 18
v 323 12
v 324 27
v 325 1
v 326 16
v 327 20
v 328 25
v 329 19
v 330 11
v 331 5
v 332 3
v 333 2
v 334 3
v 335 15
v 336 1
v 337 16
v 338 24
v 339 1
v 340 33
v 341 15
v 342 10
v 343 12
v 344 25
v 345 17
v 346 30
v 347 0
v 348 0
v 349 25
v 350 16
v 351 27
v 352 29
v 353 18
v 354 29
v 355 15
v 356 8
v 357 18
v 358 26
v 359 6
v 360 16
v 361 5
v 362 30
v 363 2
v 364 33
v 365 32
v 366 0
v 367 14
v 368 0
v 369 26
v 370 9
v 371 25
v 372 3
v 373 31
v 374 28
v 375 21
v 376 12
v 377 0
v 378 25
v 379 5
v 380 19
v 381 24
v 382 34
v 383 35
v 384 7
v 385 8
v 386 22
v 387 16
v 388 9
v 389 27
v 390 11
v 391 2
v 392 28
v 393 24
v 394 27
v 395 34
v 396 30
v 397 30
v 398 2
v 399 16
v 400 7
v 401 6
v 402 10
v 403 31
v 404 5
v 405 7
v 406 5
v 407 31
v 408 25
v 409 31
v 410 30
v 411 28
v 412 28
v 413 21
v 414 0
v 415 24
v 416 5
v 417 12
v 418 25
v 419 23
v 420 16
v 421 10
v 422 12
v 423 13
v 424 21
v 425 2
v 426 29
v 427 5
v 428 10
v 429 10
v 430 25
v 431 14
v 432 25
v 433 22
v 434 12
v 435 12
v 436 4
v 437 32
v 438 21
v 439 11
v 440 35
v 441 27
v 442 2
v 443 13
v 444 14
v 445 23
v 446 0
v 447 25
v 448 8
v 449 3
v 450 14
v 451 26
v 452 7
v 453 8
v 454 27
v 455 21
v 456 9
v 457 15
v 458 1
v 459 4
v 460 24
v 461 22
v 462 4
v 463 32
v 464 29
v 465 12
v 466 20
v 467 11
v 468 29
v 469 34
v 470 35
v 471 9
v 472 26
v 473 28
v 474 14
v 475 0
v 476 18
v 477 5
v 478 16
v 479 30
v 480 13
v 481 1
v 482 28
v 483 33
v 484 0
v 485 4
v 486 35
v 487 10
v 488 8
v 489 15
v 490 11
v 491 9
v 492 24
v 493 20
v 494 7
v 495 6
v 496 30
v 497 13
v 498 6
v 499 18
v 500 17
v 501 17
v 502 3
v 503 24
v 504 19
v 505 15
v 506 23
v 507 13
v 508 31
v 509 32
v 510 30
v 511 22
v 512 13
v 513 33
v 514 13
v 515 18
v 516 11
v 517 2
v 518 15
v 519 31
v 520 0
v 521 4
v 522 31
v 523 26
v 524 11
v 525 32
v 526 9
v 527 6
v 528 10
v 529 1
v 530 19
v 531 32
v 532 21
v 533 14
v 534 12
v 535 25
v 536 24
v 537 20
v 538 17
v 539 21
v 540 27
v 541 15
v 542 25
v 543 13
v 544 14
v 545 0
v 546 17
v 547 19
v 548 19
v 549 16
v 550 19
v 551 27
v 552 9
v 553 11
v 554 23
v 555 22
v 556 23
v 557 33
v 558 30
v 559 4
v 560 6
v 561 12
v 562 0
v 563 23
v 564 5
v 565 8
v 566 2
v 567 10
v 568 15
v 569 0
v 570 2
v 571 13
v 572 6
v 573 6
v 574 29
v 575 20
v 576 23
v 577 4
v 578 5
v 579 2
v 580 3
v 581 28
v 582 7
v 583 21
v 584 15
v 585 4
v 586 8
v 587 29
v 588 28
v 589 27
v 590 32
v 591 5
v 592 26
v 593 19
v 594 5
v 595 8
v 596 5
v 597 12
v 598 16
v 599 10
v 600 5
v 601 33
v 602 5
v 603 9
v 604 30
v 605 24
v 606 8
v 607 15
v 608 12
v 609 2
v 610 19
v 611 24
v 612 5
v 613 10
v 614 13
v 615 10
v 616 23
v 617 14
v 618 4
v 619 3
v 620 10
v 621 15
v 622 6
v 623 29
v 624 27
v 625 25
v 626 11
v 627 27
v 628 34
v 629 10
v 630 3
v 631 27
v 632 0
v 633 18
v 634 28
v 635 20
v 636 8
v 637 34
v 638 24
v 639 26
v 640 30
v 641 1
v 642 2
v 643 21
v 644 30
v 645 3
v 646 6
v 647 6
v 648 5
v 649 7
v 650 22
v 651 13
v 652 19
v 653 9
v 654 23
v 655 34
v 656 12
v 657 1
v 658 20
v 659 25
v 660 20
v 661 1
v 662 28
v 663 33
v 664 4
v 665 31
v 666 8
v 667 5
v 668 31
v 669 4
v 670 2
v 671 5
v 672 30
v 673 33
v 674 30
v 675 6
v 676 22
v 677 26
v 678 7
v 679 2
v 680 23
v 681 3
v 682 0
v 683 13
v 684 23
v 685 8
v 686 19
v 687 3
v 688 7
v 689 32
v 690 26
v 691 17
v 692 17
v 693 9
v 694 20
v 695 12
v 696 20
v 697 5
v 698 25
v 699 12
v 700 29
v 701 6
v 702 20
v 703 11
v 704 0
v 705 8
v 706 9
v 707 10
v 708 10
v 709 10
v 710 21
v 711 4
v 712 8
v 713 26
v 714 30
v 715 2
v 716 12
v 717 1
v 718 22
v 719 27
v 720 15
v 721 7
v 722 21
v 723 32
v 724 9
v 725 3
v 726 2
v 727 13
v 728 24
v 729 35
v 730 16
v 731 17
v 732 13
v 733 15
v 734 15
v 735 14
v 736 12
v 737 6
v 738 13
v 739 29
v 740 29
v 741 29
v 742 2
v 743 22
v 744 24
v 745 3
v 746 34
v 747 6
v 748 8
v 749 27
v 750 1
v 751 0
v 752 20
v 753 16
v 754 25
v 755 24
v 756 10
v 757 35
v 758 31
v 759 23
v 760 30
v 761 33
v 762 30
v 763 11
v 764 13
v 765 10
v 766 13
v 767 4
v 768 1
v 769 27
v 770 14
v 771 25
v 772 10
v 773 2
v 774 32
v 775 10
v 776 24
v 777 12
v 778 10
v 779 19
v 780 22
v 781 17
v 782 0
v 783 16
v 784 16
v 785 20
v 786 12
v 787 30
v 788 6
v 789 13
v 790 17
v 791 4
v 792 22
v 793 10
v 794 1
v 795 30
v 796 8
v 797 22
v 798 0
v 799 16
v 800 12
v 801 23
v 802 24
v 803 11
v 804 15
v 805 27
v 806 1
v 807 34
v 808 14
v 809 30
v 810 6
v 811 26
v 812 25
v 813 18
v 814 11
v 815 3
v 816 25
v 817 14
v 818 22
v 819 26
v 820 35
v 821 9
v 822 11
v 823 18
v 824 35
v 825 28
v 826 11
v 827 20
v 828 14
v 829 17
v 830 6
v 831 11
v 832 1
v 833 10
v 834 3
v 835 18
v 836 10
v 837 20
v 838 9
v 839 4
v 840 29
v 841 14
v 842 0
v 843 26
v 844 26
v 845 26
v 846 11
v 847 33
v 848 1
v 849 7
v 850 29
v 851 4
v 852 24
v 853 16
v 854 16
v 855 4
v 856 18
v 857 8
v 858 18
v 859 35
v 860 20
v 861 16
v 862 25
v 863 3
v 864 8
v 865 19
v 866 10
v 867 26
v 868 0
v 869 26
v 870 19
v 871 9
v 872 27
v 873 18
v 874 8
v 875 3
v 876 19
v 877 18
v 878 29
v 879 16
v 880 3
v 881 15
v 882 5
v 883 7
v 884 9
v 885 23
v 886 2
v 887 2
v 888 0
v 889 0
v 890 10
v 891 0
v 892 2
v 893 6
v 894 8
v 895 9
v 896 7
v 897 4
v 898 15
v 899 6
v 900 17
v 901 33
v 902 7
v 903 26
v 904 19
v 905 8
v 906 25
v 907 11
v 908 4
v 909 26
v 910 18
v 911 20
v 912 13
v 913 17
v 914 17
v 915 15
v 916 26
v 917 23
v 918 16
v 919 9
v 920 12
v 921 14
v 922 25
v 923 15
v 924 6
v 925 19
v 926 14
v 927 6
v 928 15
v 929 31
v 930 21
v 931 24
v 932 27
v 933 24
v 934 27
v 935 10
v 936 30
v 937 5
v 938 31
v 939 2
v 940 19
v 941 10
v 942 4
v 943 15
v 944 4
v 945 28
v 946 23
v 947 13
v 948 3
v 949 5
v 950 18
v 951 18
v 952 12
v 953 30
v 954 21
v 955 31
v 956 0
v 957 1
v 958 8
v 959 15
v 960 26
v 961 13
v 962 22
v 963 28
v 964 23
v 965 18
v 966 10
v 967 5
v 968 4
v 969 25
v 970 11
v 971 29
v 972 9
v 973 11
v 974 1
v 975 16
v 976 14
v 977 22
v 978 0
v 979 27
v 980 5
v 981 33
v 982 20
v 983 34
v 984 4
v 985 20
v 986 17
v 987 33
v 988 7
v 989 1
v 990 16
v 991 2
v 992 2
v 993 4
v 994 14
v 995 13
v 996 30
v 997 27
v 998 11
v 999 3
v 1000 24
v 1001 31
v 1002 22
v 1003 15
v 1004 1
v 1005 8
v 1006 25
v 1007 21
v 1008 21
v 1009 8
v 1010 28
v 1011 7
v 1012 11
v 1013 14
v 1014 20
v 1015 29
v 1016 18
v 1017 2
v 1018 14
v 1019 32
v 1020 15
v 1021 27
v 1022 25
v 1023 4
v 1024 2
v 1025 10
v 1026 25
v 1027 31
v 1028 32
v 1029 8
v 1030 31
v 1031 16
v 1032 19
v 1033 1
v 1034 11
v 1035 11
v 1036 22
v 1037 18
v 1038 27
v 1039 14
v 1040 8
v 1041 31
v 1042 7
v 1043 1
v 1044 2
v 1045 25
v 1046 30
v 1047 18
v 1048 25
v 1049 5
v 1050 28
v 1051 1
v 1052 2
v 1053 12
v 1054 25
v 1055 34
v 1056 23
v 1057 13
v 1058 22
v 1059 7
v 1060 25
v 1061 26
v 1062 1
v 1063 8
v 1064 35
v 1065 8
v 1066 15
v 1067 10
v 1068 15
v 1069 8
v 1070 17
v 1071 25
v 1072 5
v 1073 33
v 1074 8
v 1075 17
v 1076 26
v 1077 7
v 1078 5
v 1079 9
v 1080 4
v 1081 28
v 1082 27
v 1083 6
v 1084 1
v 1085 10
v 1086 29
v 1087 26
v 1088 19
v 1089 19
v 1090 12
v 1091 14
v 1092 19
v 1093 27
v 1094 29
v 1095 17
v 1096 24
v 1097 14
v 1098 19
v 1099 28
v 1100 3
v 1101 34
v 1102 30
v 1103 21
v 1104 30
v 1105 7
v 1106 28
v 1107 16
v 1108 0
v 1109 8
v 1110 19
v 1111 4
v 1112 13
v 1113 4
v 1114 14
v 1115 20
v 1116 9
v 1117 33
v 1118 3
v 1119 4
v 1120 3
v 1121 17
v 1122 2
v 1123 1
v 1124 3
v 1125 23
v 1126 24
v 1127 16
v 1128 4
v 1129 24
v 1130 19
v 1131 33
v 1132 14
v 1133 26
v 1134 31
v 1135 4
v 1136 11
v 1137 25
v 1138 16
v 1139 7
v 1140 23
v 1141 26
v 1142 28
v 1143 23
v 1144 29
v 1145 22
v 1146 9
v 1147 3
v 1148 3
v 1149 14
v 1150 21
v 1151 13
v 1152 19
v 1153 22
v 1154 6
v 1155 2
v 1156 9
v 1157 32
v 1158 4
v 1159 19
v 1160 11
v 1161 19
v 1162 3
v 1163 7
v 1164 6
v 1165 9
v 1166 17
v 1167 27
v 1168 7
v 1169 25
v 1170 2
v 1171 1
v 1172 14
v 1173 1
v 1174 23
v 1175 4
v 1176 19
v 1177 13
v 1178 28
v 1179 31
v 1180 22
v 1181 8
v 1182 11
v 1183 11
v 1184 16
v 1185 3
v 1186 17
v 1187 16
v 1188 19
v 1189 5
v 1190 21
v 1191 10
v 1192 9
v 1193 17
v 1194 0
v 1195 23
v 1196 19
v 1197 20
v 1198 17
v 1199 10
v 1200 4
v 1201 21
v 1202 3
v 1203 6
v 1204 9
v 1205 8
v 1206 7
v 1207 12
v 1208 4
v 1209 3
v 1210 30
v 1211 29
v 1212 21
v 1213 20
v 1214 29
v 1215 4
v 1216 32
v 1217 8
v 1218 5
v 1219 0
v 1220 7
v 1221 2
v 1222 8
v 1223 14
v 1224 18
v 1225 1
v 1226 14
v 1227 33
v 1228 18
v 1229 24
v 1230 30
v 1231 28
v 1232 29
v 1233 18
v 1234 9
v 1235 6
v 1236 14
v 1237 3
v 1238 30
v 1239 12
v 1240 24
v 1241 9
v 1242 21
v 1243 21
v 1244 7
v 1245 0
v 1246 2
v 1247 10
v 1248 15
v 1249 15
v 1250 14
v 1251 26
v 1252 16
v 1253 35
v 1254 27
v 1255 15
v 1256 25
v 1257 25
v 1258 11
v 1259 13
v 1260 2
v 1261 11
v 1262 1
v 1263 18
v 1264 31
v 1265 2
v 1266 6
v 1267 25
v 1268 17
v 1269 6
v 1270 1
v 1271 23
v 1272 18
v 1273 20
v 1274 21
v 1275 6
v 1276 29
v 1277 0
v 1278 3
v 1279 9
v 1280 27
v 1281 19
v 1282 0
v 1283 11
v 1284 12
v 1285 9
v 1286 24
v 1287 24
v 1288 21
v 1289 17
v 1290 28
v 1291 15
v 1292 19
v 1293 14
v 1294 1
v 1295 14
v 1296 19
v 1297 12
v 1298 1
v 1299 15
v 1300 20
v 1301 9
v 1302 15
v 1303 3
v 1304 25
v 1305 23
v 1306 31
v 1307 22
v 1308 6
v 1309 16
v 1310 3
v 1311 19
v 1312 20
v 1313 19
v 1314 26
v 1315 14
v 1316 22
v 1317 1
v 1318 3
v 1319 4
v 1320 8
v 1321 1
v 1322 17
v 1323 5
v 1324 9
v 1325 35
v 1326 28
v 1327 31
v 1328 34
v 1329 18
v 1330 11
v 1331 3
v 1332 1
v 1333 29
v 1334 20
v 1335 3
v 1336 0
v 1337 28
v 1338 11
v 1339 21
v 1340 20
v 1341 12
v 1342 10
v 1343 7
v 1344 13
v 1345 9
v 1346 5
v 1347 28
v 1348 33
v 1349 11
v 1350 5
v 1351 23
v 1352 10
v 1353 17
v 1354 10
v 1355 27
v 1356 24
v 1357 32
v 1358 17
v 1359 4
v 1360 15
v 1361 0
v 1362 18
v 1363 33
v 1364 6
v 1365 18
v 1366 16
v 1367 23
v 1368 16
v 1369 9
v 1370 3
v 1371 19
v 1372 29
v 1373 13
v 1374 12
v 1375 10
v 1376 0
v 1377 22
v 1378 9
v 1379 20
v 1380 31
v 1381 31
v 1382 16
v 1383 23
v 1384 12
v 1385 25
v 1386 12
v 1387 22
v 1388 5
v 1389 17
v 1390 14
v 1391 35
v 1392 22
v 1393 10
v 1394 35
v 1395 6
v 1396 7
v 1397 0
v 1398 12
v 1399 18
v 1400 26
v 1401 20
v 1402 16
v 1403 10
v 1404 10
v 1405 2
v 1406 12
v 1407 3
v 1408 12
v 1409 2
v 1410 8
v 1411 2
v 1412 10
v 1413 11
v 1414 1
v 1415 15
v 1416 18
v 1417 9
v 1418 23
v 1419 21
v 1420 5
v 1421 8
v 1422 25
v 1423 17
v 1424 22
v 1425 7
v 1426 5
v 1427 21
v 1428 24
v 1429 4
v 1430 2
v 1431 8
v 1432 26
v 1433 26
v 1434 7
v 1435 24
v 1436 19
v 1437 25
v 1438 6
v 1439 15
v 1440 29
v 1441 18
v 1442 8
v 1443 17
v 1444 22
v 1445 17
v 1446 23
v 1447 19
v 1448 26
v 1449 15
v 1450 11
v 1451 18
v 1452 22
v 1453 25
v 1454 18
v 1455 20
v 1456 22
v 1457 11
v 1458 2
v 1459 32
v 1460 20
v 1461 7
v 1462 9
v 1463 26
v 1464 27
v 1465 1
v 1466 17
v 1467 13
v 1468 3
v 1469 8
v 1470 17
v 1471 9
v 1472 8
v 1473 13
v 1474 31
v 1475 28
v 1476 15
v 1477 32
v 1478 28
v 1479 13
v 1480 18
v 1481 11
v 1482 25
v 1483 11
v 1484 25
v 1485 11
v 1486 23
v 1487 12
v 1488 9
v 1489 9
v 1490 6
v 1491 29
v 1492 5
v 1493 31
v 1494 14
v 1495 4
v 1496 31
v 1497 17
v 1498 0
v 1499 15
v 1500 13
v 1501 13
v 1502 28
v 1503 8
v 1504 12
v 1505 14
v 1506 3
v 1507 8
v 1508 16
v 1509 9
v 1510 10
v 1511 22
v 1512 8
v 1513 27
v 1514 8
v 1515 13
v 1516 6
v 1517 18
v 1518 16
v 1519 19
v 1520 31
v 1521 35
v 1522 16
v 1523 2
v 1524 20
v 1525 14
v 1526 11
v 1527 28
v 1528 24
v 1529 30
v 1530 28
v 1531 1
v 1532 10
v 1533 16
v 1534 34
v 1535 27
v 1536 20
v 1537 30
v 1538 4
v 1539 12
v 1540 17
v 1541 34
v 1542 12
v 1543 28
v 1544 0
v 1545 30
v 1546 31
v 1547 6
v 1548 4
v 1549 27
v 1550 30
v 1551 15
v 1552 7
v 1553 6
v 1554 2
v 1555 21
v 1556 21
v 1557 17
v 1558 10
v 1559 4
v 1560 28
v 1561 20
v 1562 4
v 1563 21
v 1564 14
v 1565 10
v 1566 24
v 1567 15
v 1568 6
v 1569 11
v 1570 12
v 1571 32
v 1572 28
v 1573 5
v 1574 22
v 1575 3
v 1576 1
v 1577 4
v 1578 14
v 1579 1
v 1580 19
v 1581 16
v 1582 11
v 1583 26
v 1584 10
v 1585 1
v 1586 13
v 1587 17
v 1588 19
v 1589 12
v 1590 24
v 1591 5
v 1592 10
v 1593 6
v 1594 14
v 1595 4
v 1596 24
v 1597 21
v 1598 9
v 1599 31
v 1600 12
v 1601 1
v 1602 19
v 1603 20
v 1604 30
v 1605 30
v 1606 4
v 1607 21
v 1608 35
v 1609 1
v 1610 26
v 1611 1
v 1612 23
v 1613 12
v 1614 2
v 1615 19
v 1616 18
v 1617 21
v 1618 2
v 1619 1
v 1620 13
v 1621 21
v 1622 18
v 1623 19
v 1624 21
v 1625 2
v 1626 15
v 1627 8
v 1628 20
v 1629 14
v 1630 32
v 1631 16
v 1632 5
v 1633 19
v 1634 32
v 1635 6
v 1636 11
v 1637 26
v 1638 1
v 1639 21
v 1640 19
v 1641 17
v 1642 14
v 1643 29
v 1644 27
v 1645 11
v 1646 5
v 1647 20
v 1648 1
v 1649 14
v 1650 0
v 1651 16
v 1652 22
v 1653 31
v 1654 15
v 1655 12
v 1656 11
v 1657 20
v 1658 7
v 1659 26
v 1660 1
v 1661 28
v 1662 18
v 1663 14
v 1664 9
v 1665 6
v 1666 19
v 1667 5
v 1668 32
v 1669 19
v 1670 7
v 1671 28
v 1672 26
v 1673 0
v 1674 10
v 1675 9
v 1676 28
v 1677 8
v 1678 21
v 1679 1
v 1680 30
v 1681 23
v 1682 14
v 1683 14
v 1684 5
v 1685 6
v 1686 27
v 1687 35
v 1688 8
v 1689 3
v 1690 17
v 1691 3
v 1692 7
v 1693 17
v 1694 32
v 1695 24
v 1696 21
v 1697 1
v 1698 24
v 1699 26
v 1700 22
v 1701 20
v 1702 2
v 1703 21
v 1704 7
v 1705 3
v 1706 2
v 1707 1
v 1708 34
v 1709 13
v 1710 27
v 1711 9
v 1712 11
v 1713 3
v 1714 29
v 1715 7
v 1716 12
v 1717 25
v 1718 27
v 1719 3
v 1720 22
v 1721 19
v 1722 13
v 1723 3
v 1724 7
v 1725 29
v 1726 20
v 1727 18
v 1728 2
v 1729 6
v 1730 16
v 1731 17
v 1732 18
v 1733 5
v 1734 1
v 1735 15
v 1736 4
v 1737 11
v 1738 13
v 1739 6
v 1740 4
v 1741 22
v 1742 16
v 1743 4
v 1744 3
v 1745 17
v 1746 23
v 1747 4
v 1748 31
v 1749 8
v 1750 11
v 1751 1
v 1752 34
v 1753 5
v 1754 3
v 1755 9
v 1756 6
v 1757 11
v 1758 22
v 1759 11
v 1760 11
v 1761 13
v 1762 22
v 1763 33
v 1764 29
v 1765 21
v 1766 22
v 1767 28
v 1768 6
v 1769 15
v 1770 30
v 1771 12
v 1772 29
v 1773 7
v 1774 31
v 1775 0
v 1776 24
v 1777 23
v 1778 35
v 1779 1
v 1780 8
v 1781 27
v 1782 15
v 1783 25
v 1784 30
v 1785 3
v 1786 19
v 1787 5
v 1788 23
v 1789 9
v 1790 34
v 1791 7
v 1792 5
v 1793 21
v 1794 15
v 1795 35
v 1796 3
v 1797 29
v 1798 17
v 1799 7
v 1800 25
